N = 20;
lengths = [265, 300, 240, 210, 175, 130, 200, 265, 105, 270, 160, 300, 110, 500, 120, 120, 130, 155, 210, 150];
widths = [265, 300, 210, 130, 115, 95, 200, 265, 105, 270, 160, 170, 110, 320, 90, 90, 100, 105, 145, 100];
heights = [35, 70, 80, 40, 40, 30, 20, 65, 40, 70, 10, 60, 40, 70, 20, 20, 30, 105, 20, 40];
reds = [197, 132, 155, 111, 71, 75, 37, 51, 161, 226, 7, 0, 124, 97, 72, 41, 55, 63, 147, 197];
greens = [215, 248, 244, 71, 48, 158, 169, 181, 104, 133, 47, 252, 166, 113, 229, 163, 154, 170, 227, 162];
blues = [20, 207, 183, 144, 128, 50, 241, 222, 244, 31, 204, 170, 32, 122, 46, 250, 149, 104, 46, 123];
